100
1000
200
200
199
198
198
198
197
197
196
196
196
195
194
193
193
193
190
190
189
188
188
188
188
187
187
187
187
186
186
185
185
184
184
183
183
183
183
182
182
181
181
181
181
180
180
179
179
178
178
177
177
177
176
175
175
174
171
170
170
170
170
169
169
168
166
165
165
163
163
163
163
162
162
161
161
160
160
159
158
157
157
157
157
156
156
156
155
154
154
154
153
153
153
152
152
152
152
151
150
150
